Minimize
	value: tt

Subject to
tt + 2000 s_1_1 > 0
tt - t_1_1 - 2000.000000 s_1_1 > -1999.612700
tt + 2000 s_2_1 > 0
tt - t_2_1 - 2000.000000 s_2_1 > -1997.678900
tt + 2000 s_1_2 > 0
tt - t_1_2 - 2000.000000 s_1_2 > -1987.985800
tt + 2000 s_2_2 > 0
tt - t_2_2 - 2000.000000 s_2_2 > -1986.374700
tt + 2000 s_1_3 > 0
tt - t_1_3 - 2000.000000 s_1_3 > -1942.843300
tt + 2000 s_2_3 > 0
tt - t_2_3 - 2000.000000 s_2_3 > -1921.024600
tt + 2000 s_1_4 > 0
tt - t_1_4 - 2021.342690 s_1_4 + 21.342690 s_1_3 > -1999.804500
tt + 2000 s_2_4 > 0
tt - t_2_4 - 2028.203690 s_2_4 + 28.203690 s_2_3 > -1998.477700
s_1_1 + s_2_1  = 1
s_1_2 + s_2_2  = 1
s_1_3 + s_2_3  = 1
s_1_4 + s_2_4  = 1
t_1_1 - t_1_2 + 2000.000000 u_1_1_2 > 12.014200
t_1_2 - t_1_1 - 2000.000000 u_1_1_2 > -1999.612700
t_2_1 - t_2_2 + 2000.000000 u_2_1_2 > 13.625300
t_2_2 - t_2_1 - 2000.000000 u_2_1_2 > -1997.678900
t_1_1 - t_1_3 + 2000.000000 u_1_1_3 > 57.156700
t_1_3 - t_1_1 - 2000.000000 u_1_1_3 > -1999.612700
t_2_1 - t_2_3 + 2000.000000 u_2_1_3 > 78.975400
t_2_3 - t_2_1 - 2000.000000 u_2_1_3 > -1997.678900
t_1_4 - t_1_1 - 2000.000000 s_1_1 > -1995.971830
t_1_4 - t_2_1 - 2000.000000 s_2_1 > -1992.023910
t_2_4 - t_1_1 - 2000.000000 s_1_1 > -1995.971830
t_2_4 - t_2_1 - 2000.000000 s_2_1 > -1992.023910
t_1_2 - t_1_1 + 2000.000000 u_1_2_1 > 0.387300
t_1_1 - t_1_2 - 2000.000000 u_1_2_1 > -1987.985800
t_2_2 - t_2_1 + 2000.000000 u_2_2_1 > 2.321100
t_2_1 - t_2_2 - 2000.000000 u_2_2_1 > -1986.374700
t_1_2 - t_1_3 + 2000.000000 u_1_2_3 > 57.156700
t_1_3 - t_1_2 - 2000.000000 u_1_2_3 > -1987.985800
t_2_2 - t_2_3 + 2000.000000 u_2_2_3 > 78.975400
t_2_3 - t_2_2 - 2000.000000 u_2_2_3 > -1986.374700
t_1_4 - t_1_2 - 2000.000000 s_1_2 > -1984.344930
t_1_4 - t_2_2 - 2000.000000 s_2_2 > -1980.719710
t_2_4 - t_1_2 - 2000.000000 s_1_2 > -1984.344930
t_2_4 - t_2_2 - 2000.000000 s_2_2 > -1980.719710
t_1_3 - t_1_1 + 2000.000000 u_1_3_1 > 0.387300
t_1_1 - t_1_3 - 2000.000000 u_1_3_1 > -1942.843300
t_2_3 - t_2_1 + 2000.000000 u_2_3_1 > 2.321100
t_2_1 - t_2_3 - 2000.000000 u_2_3_1 > -1921.024600
t_1_3 - t_1_2 + 2000.000000 u_1_3_2 > 12.014200
t_1_2 - t_1_3 - 2000.000000 u_1_3_2 > -1942.843300
t_2_3 - t_2_2 + 2000.000000 u_2_3_2 > 13.625300
t_2_2 - t_2_3 - 2000.000000 u_2_3_2 > -1921.024600
t_1_4 - t_1_3 - 2000.000000 s_1_3 > -1939.202430
t_1_4 - t_2_3 - 2000.000000 s_2_3 > -1915.369610
t_2_4 - t_1_3 - 2000.000000 s_1_3 > -1939.202430
t_2_4 - t_2_3 - 2000.000000 s_2_3 > -1915.369610
t_1_4 - t_1_1 - 2000.000000 s_1_1 > -1995.971830
t_1_4 - t_2_1 - 2000.000000 s_2_1 > -1992.023910
t_2_4 - t_1_1 - 2000.000000 s_1_1 > -1995.971830
t_2_4 - t_2_1 - 2000.000000 s_2_1 > -1992.023910
t_1_4 - t_1_2 - 2000.000000 s_1_2 > -1984.344930
t_1_4 - t_2_2 - 2000.000000 s_2_2 > -1980.719710
t_2_4 - t_1_2 - 2000.000000 s_1_2 > -1984.344930
t_2_4 - t_2_2 - 2000.000000 s_2_2 > -1980.719710
t_1_4 - t_1_3 - 2000.000000 s_1_3 > -1939.202430
t_1_4 - t_2_3 - 2000.000000 s_2_3 > -1915.369610
t_2_4 - t_1_3 - 2000.000000 s_1_3 > -1939.202430
t_2_4 - t_2_3 - 2000.000000 s_2_3 > -1915.369610
Binary
s_1_1
s_2_1
s_1_2
s_2_2
s_1_3
s_2_3
s_1_4
s_2_4
u_1_1_2
u_2_1_2
u_1_1_3
u_2_1_3
u_1_2_1
u_2_2_1
u_1_2_3
u_2_2_3
u_1_3_1
u_2_3_1
u_1_3_2
u_2_3_2

End
